#BEGIN: [Fri Oct 28 11:37:00 2022]
#HOST: mini17.local
#TIMELIMIT: 10800
#MEMLIMIT: 0
#FREQ: 10
#SOLVER: anSolverAsp221027
#CSP: benchmark/automata-network/star_asp/star12.lp
#K: 24
#COMMAND: /Users/soh/app/finding_attractors/incremental-finding.sh benchmark/automata-network/star_asp/star12.lp 24
benchmark/automata-network/star_asp/star12.lp 1
-e %----- The attractor computed for benchmark/automata-network/star_asp/star12.lp 
 %----- The size of the attractor = 1 

clingo version 5.4.0
Reading from ...from_paper2017/scripts/fixed-points.lp ...
Solving...
UNSATISFIABLE

Models       : 0
Calls        : 1
Time         : 0.011s (Solving: 0.00s 1st Model: 0.00s Unsat: 0.00s)
CPU Time     : 0.005s
benchmark/automata-network/star_asp/star12.lp 2
-e %----- The attractor computed for benchmark/automata-network/star_asp/star12.lp 
 %----- The size of the attractor = 2 
-e   %----- The attractor computed with Asynchronous Dynamics 

-e CMD: clingo /Users/soh/app/finding_attractors/01_original_from_paper2017/scripts/asynch.lp /Users/soh/app/finding_attractors/02_attractors-new/with-cycle/attractors-preF.lp /Users/soh/app/finding_attractors/02_attractors-new/with-cycle/attractors-postF.lp benchmark/automata-network/star_asp/star12.lp --const n=2 0

clingo version 5.4.0
Reading from ...ginal_from_paper2017/scripts/asynch.lp ...
Solving...
UNSATISFIABLE

Models       : 0
Calls        : 1
Time         : 0.048s (Solving: 0.00s 1st Model: 0.00s Unsat: 0.00s)
CPU Time     : 0.042s
[ Calling Python ]
[ Solving ready ]
*** Found: 0; skipped: 0
benchmark/automata-network/star_asp/star12.lp 3
-e %----- The attractor computed for benchmark/automata-network/star_asp/star12.lp 
 %----- The size of the attractor = 3 
-e   %----- The attractor computed with Asynchronous Dynamics 

-e CMD: clingo /Users/soh/app/finding_attractors/01_original_from_paper2017/scripts/asynch.lp /Users/soh/app/finding_attractors/02_attractors-new/with-cycle/attractors-preF.lp /Users/soh/app/finding_attractors/02_attractors-new/with-cycle/attractors-postF.lp benchmark/automata-network/star_asp/star12.lp --const n=3 0

clingo version 5.4.0
Reading from ...ginal_from_paper2017/scripts/asynch.lp ...
Solving...
UNSATISFIABLE

Models       : 0
Calls        : 1
Time         : 0.053s (Solving: 0.00s 1st Model: 0.00s Unsat: 0.00s)
CPU Time     : 0.047s
[ Calling Python ]
[ Solving ready ]
*** Found: 0; skipped: 0
benchmark/automata-network/star_asp/star12.lp 4
-e %----- The attractor computed for benchmark/automata-network/star_asp/star12.lp 
 %----- The size of the attractor = 4 
-e   %----- The attractor computed with Asynchronous Dynamics 

-e CMD: clingo /Users/soh/app/finding_attractors/01_original_from_paper2017/scripts/asynch.lp /Users/soh/app/finding_attractors/02_attractors-new/with-cycle/attractors-preF.lp /Users/soh/app/finding_attractors/02_attractors-new/with-cycle/attractors-postF.lp benchmark/automata-network/star_asp/star12.lp --const n=4 0

clingo version 5.4.0
Reading from ...ginal_from_paper2017/scripts/asynch.lp ...
Solving...
UNSATISFIABLE

Models       : 0
Calls        : 1
Time         : 0.076s (Solving: 0.01s 1st Model: 0.00s Unsat: 0.01s)
CPU Time     : 0.070s
[ Calling Python ]
[ Solving ready ]
*** Found: 0; skipped: 0
benchmark/automata-network/star_asp/star12.lp 5
-e %----- The attractor computed for benchmark/automata-network/star_asp/star12.lp 
 %----- The size of the attractor = 5 
-e   %----- The attractor computed with Asynchronous Dynamics 

-e CMD: clingo /Users/soh/app/finding_attractors/01_original_from_paper2017/scripts/asynch.lp /Users/soh/app/finding_attractors/02_attractors-new/with-cycle/attractors-preF.lp /Users/soh/app/finding_attractors/02_attractors-new/with-cycle/attractors-postF.lp benchmark/automata-network/star_asp/star12.lp --const n=5 0

clingo version 5.4.0
Reading from ...ginal_from_paper2017/scripts/asynch.lp ...
Solving...
UNSATISFIABLE

Models       : 0
Calls        : 1
Time         : 0.100s (Solving: 0.01s 1st Model: 0.00s Unsat: 0.01s)
CPU Time     : 0.095s
[ Calling Python ]
[ Solving ready ]
*** Found: 0; skipped: 0
benchmark/automata-network/star_asp/star12.lp 6
-e %----- The attractor computed for benchmark/automata-network/star_asp/star12.lp 
 %----- The size of the attractor = 6 
-e   %----- The attractor computed with Asynchronous Dynamics 

-e CMD: clingo /Users/soh/app/finding_attractors/01_original_from_paper2017/scripts/asynch.lp /Users/soh/app/finding_attractors/02_attractors-new/with-cycle/attractors-preF.lp /Users/soh/app/finding_attractors/02_attractors-new/with-cycle/attractors-postF.lp benchmark/automata-network/star_asp/star12.lp --const n=6 0

clingo version 5.4.0
Reading from ...ginal_from_paper2017/scripts/asynch.lp ...
Solving...
UNSATISFIABLE

Models       : 0
Calls        : 1
Time         : 0.144s (Solving: 0.02s 1st Model: 0.00s Unsat: 0.02s)
CPU Time     : 0.138s
[ Calling Python ]
[ Solving ready ]
*** Found: 0; skipped: 0
benchmark/automata-network/star_asp/star12.lp 7
-e %----- The attractor computed for benchmark/automata-network/star_asp/star12.lp 
 %----- The size of the attractor = 7 
-e   %----- The attractor computed with Asynchronous Dynamics 

-e CMD: clingo /Users/soh/app/finding_attractors/01_original_from_paper2017/scripts/asynch.lp /Users/soh/app/finding_attractors/02_attractors-new/with-cycle/attractors-preF.lp /Users/soh/app/finding_attractors/02_attractors-new/with-cycle/attractors-postF.lp benchmark/automata-network/star_asp/star12.lp --const n=7 0

clingo version 5.4.0
Reading from ...ginal_from_paper2017/scripts/asynch.lp ...
Solving...
UNSATISFIABLE

Models       : 0
Calls        : 1
Time         : 0.225s (Solving: 0.05s 1st Model: 0.00s Unsat: 0.05s)
CPU Time     : 0.219s
[ Calling Python ]
[ Solving ready ]
*** Found: 0; skipped: 0
benchmark/automata-network/star_asp/star12.lp 8
-e %----- The attractor computed for benchmark/automata-network/star_asp/star12.lp 
 %----- The size of the attractor = 8 
-e   %----- The attractor computed with Asynchronous Dynamics 

-e CMD: clingo /Users/soh/app/finding_attractors/01_original_from_paper2017/scripts/asynch.lp /Users/soh/app/finding_attractors/02_attractors-new/with-cycle/attractors-preF.lp /Users/soh/app/finding_attractors/02_attractors-new/with-cycle/attractors-postF.lp benchmark/automata-network/star_asp/star12.lp --const n=8 0

clingo version 5.4.0
Reading from ...ginal_from_paper2017/scripts/asynch.lp ...
Solving...
UNSATISFIABLE

Models       : 0
Calls        : 1
Time         : 0.401s (Solving: 0.09s 1st Model: 0.00s Unsat: 0.09s)
CPU Time     : 0.396s
[ Calling Python ]
[ Solving ready ]
*** Found: 0; skipped: 0
benchmark/automata-network/star_asp/star12.lp 9
-e %----- The attractor computed for benchmark/automata-network/star_asp/star12.lp 
 %----- The size of the attractor = 9 
-e   %----- The attractor computed with Asynchronous Dynamics 

-e CMD: clingo /Users/soh/app/finding_attractors/01_original_from_paper2017/scripts/asynch.lp /Users/soh/app/finding_attractors/02_attractors-new/with-cycle/attractors-preF.lp /Users/soh/app/finding_attractors/02_attractors-new/with-cycle/attractors-postF.lp benchmark/automata-network/star_asp/star12.lp --const n=9 0

clingo version 5.4.0
Reading from ...ginal_from_paper2017/scripts/asynch.lp ...
Solving...
UNSATISFIABLE

Models       : 0
Calls        : 1
Time         : 0.672s (Solving: 0.22s 1st Model: 0.00s Unsat: 0.22s)
CPU Time     : 0.666s
[ Calling Python ]
[ Solving ready ]
*** Found: 0; skipped: 0
benchmark/automata-network/star_asp/star12.lp 10
-e %----- The attractor computed for benchmark/automata-network/star_asp/star12.lp 
 %----- The size of the attractor = 10 
-e   %----- The attractor computed with Asynchronous Dynamics 

-e CMD: clingo /Users/soh/app/finding_attractors/01_original_from_paper2017/scripts/asynch.lp /Users/soh/app/finding_attractors/02_attractors-new/with-cycle/attractors-preF.lp /Users/soh/app/finding_attractors/02_attractors-new/with-cycle/attractors-postF.lp benchmark/automata-network/star_asp/star12.lp --const n=10 0

clingo version 5.4.0
Reading from ...ginal_from_paper2017/scripts/asynch.lp ...
Solving...
UNSATISFIABLE

Models       : 0
Calls        : 1
Time         : 1.168s (Solving: 0.53s 1st Model: 0.00s Unsat: 0.53s)
CPU Time     : 1.159s
[ Calling Python ]
[ Solving ready ]
*** Found: 0; skipped: 0
benchmark/automata-network/star_asp/star12.lp 11
-e %----- The attractor computed for benchmark/automata-network/star_asp/star12.lp 
 %----- The size of the attractor = 11 
-e   %----- The attractor computed with Asynchronous Dynamics 

-e CMD: clingo /Users/soh/app/finding_attractors/01_original_from_paper2017/scripts/asynch.lp /Users/soh/app/finding_attractors/02_attractors-new/with-cycle/attractors-preF.lp /Users/soh/app/finding_attractors/02_attractors-new/with-cycle/attractors-postF.lp benchmark/automata-network/star_asp/star12.lp --const n=11 0

clingo version 5.4.0
Reading from ...ginal_from_paper2017/scripts/asynch.lp ...
Solving...
UNSATISFIABLE

Models       : 0
Calls        : 1
Time         : 2.282s (Solving: 1.34s 1st Model: 0.00s Unsat: 1.34s)
CPU Time     : 2.276s
[ Calling Python ]
[ Solving ready ]
*** Found: 0; skipped: 0
benchmark/automata-network/star_asp/star12.lp 12
-e %----- The attractor computed for benchmark/automata-network/star_asp/star12.lp 
 %----- The size of the attractor = 12 
-e   %----- The attractor computed with Asynchronous Dynamics 

-e CMD: clingo /Users/soh/app/finding_attractors/01_original_from_paper2017/scripts/asynch.lp /Users/soh/app/finding_attractors/02_attractors-new/with-cycle/attractors-preF.lp /Users/soh/app/finding_attractors/02_attractors-new/with-cycle/attractors-postF.lp benchmark/automata-network/star_asp/star12.lp --const n=12 0

clingo version 5.4.0
Reading from ...ginal_from_paper2017/scripts/asynch.lp ...
Solving...
UNSATISFIABLE

Models       : 0
Calls        : 1
Time         : 3.979s (Solving: 2.58s 1st Model: 0.00s Unsat: 2.58s)
CPU Time     : 3.972s
[ Calling Python ]
[ Solving ready ]
*** Found: 0; skipped: 0
benchmark/automata-network/star_asp/star12.lp 13
-e %----- The attractor computed for benchmark/automata-network/star_asp/star12.lp 
 %----- The size of the attractor = 13 
-e   %----- The attractor computed with Asynchronous Dynamics 

-e CMD: clingo /Users/soh/app/finding_attractors/01_original_from_paper2017/scripts/asynch.lp /Users/soh/app/finding_attractors/02_attractors-new/with-cycle/attractors-preF.lp /Users/soh/app/finding_attractors/02_attractors-new/with-cycle/attractors-postF.lp benchmark/automata-network/star_asp/star12.lp --const n=13 0

clingo version 5.4.0
Reading from ...ginal_from_paper2017/scripts/asynch.lp ...
Solving...
UNSATISFIABLE

Models       : 0
Calls        : 1
Time         : 6.451s (Solving: 4.57s 1st Model: 0.00s Unsat: 4.57s)
CPU Time     : 6.443s
[ Calling Python ]
[ Solving ready ]
*** Found: 0; skipped: 0
benchmark/automata-network/star_asp/star12.lp 14
-e %----- The attractor computed for benchmark/automata-network/star_asp/star12.lp 
 %----- The size of the attractor = 14 
-e   %----- The attractor computed with Asynchronous Dynamics 

-e CMD: clingo /Users/soh/app/finding_attractors/01_original_from_paper2017/scripts/asynch.lp /Users/soh/app/finding_attractors/02_attractors-new/with-cycle/attractors-preF.lp /Users/soh/app/finding_attractors/02_attractors-new/with-cycle/attractors-postF.lp benchmark/automata-network/star_asp/star12.lp --const n=14 0

clingo version 5.4.0
Reading from ...ginal_from_paper2017/scripts/asynch.lp ...
Solving...
UNSATISFIABLE

Models       : 0
Calls        : 1
Time         : 11.780s (Solving: 9.28s 1st Model: 0.00s Unsat: 9.28s)
CPU Time     : 11.769s
[ Calling Python ]
[ Solving ready ]
*** Found: 0; skipped: 0
benchmark/automata-network/star_asp/star12.lp 15
-e %----- The attractor computed for benchmark/automata-network/star_asp/star12.lp 
 %----- The size of the attractor = 15 
-e   %----- The attractor computed with Asynchronous Dynamics 

-e CMD: clingo /Users/soh/app/finding_attractors/01_original_from_paper2017/scripts/asynch.lp /Users/soh/app/finding_attractors/02_attractors-new/with-cycle/attractors-preF.lp /Users/soh/app/finding_attractors/02_attractors-new/with-cycle/attractors-postF.lp benchmark/automata-network/star_asp/star12.lp --const n=15 0

clingo version 5.4.0
Reading from ...ginal_from_paper2017/scripts/asynch.lp ...
Solving...
UNSATISFIABLE

Models       : 0
Calls        : 1
Time         : 8.223s (Solving: 4.82s 1st Model: 0.00s Unsat: 4.82s)
CPU Time     : 8.214s
[ Calling Python ]
[ Solving ready ]
*** Found: 0; skipped: 0
benchmark/automata-network/star_asp/star12.lp 16
-e %----- The attractor computed for benchmark/automata-network/star_asp/star12.lp 
 %----- The size of the attractor = 16 
-e   %----- The attractor computed with Asynchronous Dynamics 

-e CMD: clingo /Users/soh/app/finding_attractors/01_original_from_paper2017/scripts/asynch.lp /Users/soh/app/finding_attractors/02_attractors-new/with-cycle/attractors-preF.lp /Users/soh/app/finding_attractors/02_attractors-new/with-cycle/attractors-postF.lp benchmark/automata-network/star_asp/star12.lp --const n=16 0

clingo version 5.4.0
Reading from ...ginal_from_paper2017/scripts/asynch.lp ...
Solving...
UNSATISFIABLE

Models       : 0
Calls        : 1
Time         : 58.507s (Solving: 54.20s 1st Model: 0.00s Unsat: 54.20s)
CPU Time     : 58.475s
[ Calling Python ]
[ Solving ready ]
*** Found: 0; skipped: 0
benchmark/automata-network/star_asp/star12.lp 17
-e %----- The attractor computed for benchmark/automata-network/star_asp/star12.lp 
 %----- The size of the attractor = 17 
-e   %----- The attractor computed with Asynchronous Dynamics 

-e CMD: clingo /Users/soh/app/finding_attractors/01_original_from_paper2017/scripts/asynch.lp /Users/soh/app/finding_attractors/02_attractors-new/with-cycle/attractors-preF.lp /Users/soh/app/finding_attractors/02_attractors-new/with-cycle/attractors-postF.lp benchmark/automata-network/star_asp/star12.lp --const n=17 0

clingo version 5.4.0
Reading from ...ginal_from_paper2017/scripts/asynch.lp ...
Solving...
UNSATISFIABLE

Models       : 0
Calls        : 1
Time         : 13.937s (Solving: 8.38s 1st Model: 0.00s Unsat: 8.38s)
CPU Time     : 13.925s
[ Calling Python ]
[ Solving ready ]
*** Found: 0; skipped: 0
benchmark/automata-network/star_asp/star12.lp 18
-e %----- The attractor computed for benchmark/automata-network/star_asp/star12.lp 
 %----- The size of the attractor = 18 
-e   %----- The attractor computed with Asynchronous Dynamics 

-e CMD: clingo /Users/soh/app/finding_attractors/01_original_from_paper2017/scripts/asynch.lp /Users/soh/app/finding_attractors/02_attractors-new/with-cycle/attractors-preF.lp /Users/soh/app/finding_attractors/02_attractors-new/with-cycle/attractors-postF.lp benchmark/automata-network/star_asp/star12.lp --const n=18 0

clingo version 5.4.0
Reading from ...ginal_from_paper2017/scripts/asynch.lp ...
Solving...
UNSATISFIABLE

Models       : 0
Calls        : 1
Time         : 136.103s (Solving: 129.01s 1st Model: 0.00s Unsat: 129.01s)
CPU Time     : 136.038s
[ Calling Python ]
[ Solving ready ]
*** Found: 0; skipped: 0
benchmark/automata-network/star_asp/star12.lp 19
-e %----- The attractor computed for benchmark/automata-network/star_asp/star12.lp 
 %----- The size of the attractor = 19 
-e   %----- The attractor computed with Asynchronous Dynamics 

-e CMD: clingo /Users/soh/app/finding_attractors/01_original_from_paper2017/scripts/asynch.lp /Users/soh/app/finding_attractors/02_attractors-new/with-cycle/attractors-preF.lp /Users/soh/app/finding_attractors/02_attractors-new/with-cycle/attractors-postF.lp benchmark/automata-network/star_asp/star12.lp --const n=19 0

clingo version 5.4.0
Reading from ...ginal_from_paper2017/scripts/asynch.lp ...
Solving...
UNSATISFIABLE

Models       : 0
Calls        : 1
Time         : 18.892s (Solving: 10.06s 1st Model: 0.00s Unsat: 10.06s)
CPU Time     : 18.878s
[ Calling Python ]
[ Solving ready ]
*** Found: 0; skipped: 0
benchmark/automata-network/star_asp/star12.lp 20
-e %----- The attractor computed for benchmark/automata-network/star_asp/star12.lp 
 %----- The size of the attractor = 20 
-e   %----- The attractor computed with Asynchronous Dynamics 

-e CMD: clingo /Users/soh/app/finding_attractors/01_original_from_paper2017/scripts/asynch.lp /Users/soh/app/finding_attractors/02_attractors-new/with-cycle/attractors-preF.lp /Users/soh/app/finding_attractors/02_attractors-new/with-cycle/attractors-postF.lp benchmark/automata-network/star_asp/star12.lp --const n=20 0

clingo version 5.4.0
Reading from ...ginal_from_paper2017/scripts/asynch.lp ...
Solving...
UNSATISFIABLE

Models       : 0
Calls        : 1
Time         : 3370.036s (Solving: 3359.10s 1st Model: 0.00s Unsat: 3359.10s)
CPU Time     : 3368.461s
[ Calling Python ]
[ Solving ready ]
*** Found: 0; skipped: 0
benchmark/automata-network/star_asp/star12.lp 21
-e %----- The attractor computed for benchmark/automata-network/star_asp/star12.lp 
 %----- The size of the attractor = 21 
-e   %----- The attractor computed with Asynchronous Dynamics 

-e CMD: clingo /Users/soh/app/finding_attractors/01_original_from_paper2017/scripts/asynch.lp /Users/soh/app/finding_attractors/02_attractors-new/with-cycle/attractors-preF.lp /Users/soh/app/finding_attractors/02_attractors-new/with-cycle/attractors-postF.lp benchmark/automata-network/star_asp/star12.lp --const n=21 0

clingo version 5.4.0
Reading from ...ginal_from_paper2017/scripts/asynch.lp ...
Solving...
UNSATISFIABLE

Models       : 0
Calls        : 1
Time         : 25.340s (Solving: 11.98s 1st Model: 0.00s Unsat: 11.98s)
CPU Time     : 25.324s
[ Calling Python ]
[ Solving ready ]
*** Found: 0; skipped: 0
benchmark/automata-network/star_asp/star12.lp 22
-e %----- The attractor computed for benchmark/automata-network/star_asp/star12.lp 
 %----- The size of the attractor = 22 
-e   %----- The attractor computed with Asynchronous Dynamics 

-e CMD: clingo /Users/soh/app/finding_attractors/01_original_from_paper2017/scripts/asynch.lp /Users/soh/app/finding_attractors/02_attractors-new/with-cycle/attractors-preF.lp /Users/soh/app/finding_attractors/02_attractors-new/with-cycle/attractors-postF.lp benchmark/automata-network/star_asp/star12.lp --const n=22 0

clingo version 5.4.0
Reading from ...ginal_from_paper2017/scripts/asynch.lp ...
Solving...
UNSATISFIABLE

Models       : 0
Calls        : 1
Time         : 6229.537s (Solving: 6212.27s 1st Model: 0.00s Unsat: 6212.27s)
CPU Time     : 6226.658s
[ Calling Python ]
[ Solving ready ]
*** Found: 0; skipped: 0
benchmark/automata-network/star_asp/star12.lp 23
-e %----- The attractor computed for benchmark/automata-network/star_asp/star12.lp 
 %----- The size of the attractor = 23 
-e   %----- The attractor computed with Asynchronous Dynamics 

-e CMD: clingo /Users/soh/app/finding_attractors/01_original_from_paper2017/scripts/asynch.lp /Users/soh/app/finding_attractors/02_attractors-new/with-cycle/attractors-preF.lp /Users/soh/app/finding_attractors/02_attractors-new/with-cycle/attractors-postF.lp benchmark/automata-network/star_asp/star12.lp --const n=23 0

clingo version 5.4.0
Reading from ...ginal_from_paper2017/scripts/asynch.lp ...
Solving...
UNSATISFIABLE

Models       : 0
Calls        : 1
Time         : 38.176s (Solving: 18.08s 1st Model: 0.00s Unsat: 18.08s)
CPU Time     : 38.153s
[ Calling Python ]
[ Solving ready ]
*** Found: 0; skipped: 0
benchmark/automata-network/star_asp/star12.lp 24
-e %----- The attractor computed for benchmark/automata-network/star_asp/star12.lp 
 %----- The size of the attractor = 24 
-e   %----- The attractor computed with Asynchronous Dynamics 

-e CMD: clingo /Users/soh/app/finding_attractors/01_original_from_paper2017/scripts/asynch.lp /Users/soh/app/finding_attractors/02_attractors-new/with-cycle/attractors-preF.lp /Users/soh/app/finding_attractors/02_attractors-new/with-cycle/attractors-postF.lp benchmark/automata-network/star_asp/star12.lp --const n=24 0

clingo version 5.4.0
Reading from ...ginal_from_paper2017/scripts/asynch.lp ...
Solving...
Answer: 1
active(level("A1",1),3) active(level("A2",1),11) active(level("A3",1),9) active(level("A4",1),19) active(level("A5",1),7) active(level("A6",1),5) active(level("A7",1),21) active(level("A8",1),13) active(level("A9",1),15) active(level("A10",1),17) active(level("A11",1),1) active(level("A12",1),23) active(level("A1",0),1) active(level("A1",0),2) active(level("A1",0),4) active(level("A1",0),5) active(level("A1",0),6) active(level("A1",0),7) active(level("A1",0),8) active(level("A1",0),9) active(level("A1",0),10) active(level("A1",0),11) active(level("A1",0),12) active(level("A1",0),13) active(level("A1",0),14) active(level("A1",0),15) active(level("A1",0),16) active(level("A1",0),17) active(level("A1",0),18) active(level("A1",0),19) active(level("A1",0),20) active(level("A1",0),21) active(level("A1",0),22) active(level("A1",0),23) active(level("A1",0),24) active(level("A2",0),1) active(level("A2",0),2) active(level("A2",0),3) active(level("A2",0),4) active(level("A2",0),5) active(level("A2",0),6) active(level("A2",0),7) active(level("A2",0),8) active(level("A2",0),9) active(level("A2",0),10) active(level("A2",0),12) active(level("A2",0),13) active(level("A2",0),14) active(level("A2",0),15) active(level("A2",0),16) active(level("A2",0),17) active(level("A2",0),18) active(level("A2",0),19) active(level("A2",0),20) active(level("A2",0),21) active(level("A2",0),22) active(level("A2",0),23) active(level("A2",0),24) active(level("A3",0),1) active(level("A3",0),2) active(level("A3",0),3) active(level("A3",0),4) active(level("A3",0),5) active(level("A3",0),6) active(level("A3",0),7) active(level("A3",0),8) active(level("A3",0),10) active(level("A3",0),11) active(level("A3",0),12) active(level("A3",0),13) active(level("A3",0),14) active(level("A3",0),15) active(level("A3",0),16) active(level("A3",0),17) active(level("A3",0),18) active(level("A3",0),19) active(level("A3",0),20) active(level("A3",0),21) active(level("A3",0),22) active(level("A3",0),23) active(level("A3",0),24) active(level("A4",0),1) active(level("A4",0),2) active(level("A4",0),3) active(level("A4",0),4) active(level("A4",0),5) active(level("A4",0),6) active(level("A4",0),7) active(level("A4",0),8) active(level("A4",0),9) active(level("A4",0),10) active(level("A4",0),11) active(level("A4",0),12) active(level("A4",0),13) active(level("A4",0),14) active(level("A4",0),15) active(level("A4",0),16) active(level("A4",0),17) active(level("A4",0),18) active(level("A4",0),20) active(level("A4",0),21) active(level("A4",0),22) active(level("A4",0),23) active(level("A4",0),24) active(level("A5",0),1) active(level("A5",0),2) active(level("A5",0),3) active(level("A5",0),4) active(level("A5",0),5) active(level("A5",0),6) active(level("A5",0),8) active(level("A5",0),9) active(level("A5",0),10) active(level("A5",0),11) active(level("A5",0),12) active(level("A5",0),13) active(level("A5",0),14) active(level("A5",0),15) active(level("A5",0),16) active(level("A5",0),17) active(level("A5",0),18) active(level("A5",0),19) active(level("A5",0),20) active(level("A5",0),21) active(level("A5",0),22) active(level("A5",0),23) active(level("A5",0),24) active(level("A6",0),1) active(level("A6",0),2) active(level("A6",0),3) active(level("A6",0),4) active(level("A6",0),6) active(level("A6",0),7) active(level("A6",0),8) active(level("A6",0),9) active(level("A6",0),10) active(level("A6",0),11) active(level("A6",0),12) active(level("A6",0),13) active(level("A6",0),14) active(level("A6",0),15) active(level("A6",0),16) active(level("A6",0),17) active(level("A6",0),18) active(level("A6",0),19) active(level("A6",0),20) active(level("A6",0),21) active(level("A6",0),22) active(level("A6",0),23) active(level("A6",0),24) active(level("A7",0),1) active(level("A7",0),2) active(level("A7",0),3) active(level("A7",0),4) active(level("A7",0),5) active(level("A7",0),6) active(level("A7",0),7) active(level("A7",0),8) active(level("A7",0),9) active(level("A7",0),10) active(level("A7",0),11) active(level("A7",0),12) active(level("A7",0),13) active(level("A7",0),14) active(level("A7",0),15) active(level("A7",0),16) active(level("A7",0),17) active(level("A7",0),18) active(level("A7",0),19) active(level("A7",0),20) active(level("A7",0),22) active(level("A7",0),23) active(level("A7",0),24) active(level("A8",0),1) active(level("A8",0),2) active(level("A8",0),3) active(level("A8",0),4) active(level("A8",0),5) active(level("A8",0),6) active(level("A8",0),7) active(level("A8",0),8) active(level("A8",0),9) active(level("A8",0),10) active(level("A8",0),11) active(level("A8",0),12) active(level("A8",0),14) active(level("A8",0),15) active(level("A8",0),16) active(level("A8",0),17) active(level("A8",0),18) active(level("A8",0),19) active(level("A8",0),20) active(level("A8",0),21) active(level("A8",0),22) active(level("A8",0),23) active(level("A8",0),24) active(level("A9",0),1) active(level("A9",0),2) active(level("A9",0),3) active(level("A9",0),4) active(level("A9",0),5) active(level("A9",0),6) active(level("A9",0),7) active(level("A9",0),8) active(level("A9",0),9) active(level("A9",0),10) active(level("A9",0),11) active(level("A9",0),12) active(level("A9",0),13) active(level("A9",0),14) active(level("A9",0),16) active(level("A9",0),17) active(level("A9",0),18) active(level("A9",0),19) active(level("A9",0),20) active(level("A9",0),21) active(level("A9",0),22) active(level("A9",0),23) active(level("A9",0),24) active(level("A10",0),1) active(level("A10",0),2) active(level("A10",0),3) active(level("A10",0),4) active(level("A10",0),5) active(level("A10",0),6) active(level("A10",0),7) active(level("A10",0),8) active(level("A10",0),9) active(level("A10",0),10) active(level("A10",0),11) active(level("A10",0),12) active(level("A10",0),13) active(level("A10",0),14) active(level("A10",0),15) active(level("A10",0),16) active(level("A10",0),18) active(level("A10",0),19) active(level("A10",0),20) active(level("A10",0),21) active(level("A10",0),22) active(level("A10",0),23) active(level("A10",0),24) active(level("A11",0),2) active(level("A11",0),3) active(level("A11",0),4) active(level("A11",0),5) active(level("A11",0),6) active(level("A11",0),7) active(level("A11",0),8) active(level("A11",0),9) active(level("A11",0),10) active(level("A11",0),11) active(level("A11",0),12) active(level("A11",0),13) active(level("A11",0),14) active(level("A11",0),15) active(level("A11",0),16) active(level("A11",0),17) active(level("A11",0),18) active(level("A11",0),19) active(level("A11",0),20) active(level("A11",0),21) active(level("A11",0),22) active(level("A11",0),23) active(level("A11",0),24) active(level("A12",0),1) active(level("A12",0),2) active(level("A12",0),3) active(level("A12",0),4) active(level("A12",0),5) active(level("A12",0),6) active(level("A12",0),7) active(level("A12",0),8) active(level("A12",0),9) active(level("A12",0),10) active(level("A12",0),11) active(level("A12",0),12) active(level("A12",0),13) active(level("A12",0),14) active(level("A12",0),15) active(level("A12",0),16) active(level("A12",0),17) active(level("A12",0),18) active(level("A12",0),19) active(level("A12",0),20) active(level("A12",0),21) active(level("A12",0),22) active(level("A12",0),24) active(level("A12",0),0) active(level("A11",0),0) active(level("A10",0),0) active(level("A9",0),0) active(level("A8",0),0) active(level("A7",0),0) active(level("A6",0),0) active(level("A5",0),0) active(level("A4",0),0) active(level("A3",0),0) active(level("A2",0),0) active(level("A1",0),0) numberStates(13)
SATISFIABLE

Models       : 1
Calls        : 1
Time         : 36.736s (Solving: 12.70s 1st Model: 0.20s Unsat: 12.50s)
CPU Time     : 36.714s
[ Calling Python ]
[ Solving ready ]
*** New model found! (currently 1 solutions found)
{(1, 0, 0, 0, 0, 0, 0, 0, 0, 0, 0, 0), (0, 0, 1, 0, 0, 0, 0, 0, 0, 0, 0, 0), (0, 0, 0, 0, 0, 0, 0, 1, 0, 0, 0, 0), (0, 1, 0, 0, 0, 0, 0, 0, 0, 0, 0, 0), (0, 0, 0, 0, 0, 1, 0, 0, 0, 0, 0, 0), (0, 0, 0, 0, 0, 0, 1, 0, 0, 0, 0, 0), (0, 0, 0, 0, 0, 0, 0, 0, 0, 0, 1, 0), (0, 0, 0, 0, 1, 0, 0, 0, 0, 0, 0, 0), (0, 0, 0, 0, 0, 0, 0, 0, 0, 0, 0, 1), (0, 0, 0, 0, 0, 0, 0, 0, 0, 0, 0, 0), (0, 0, 0, 0, 0, 0, 0, 0, 1, 0, 0, 0), (0, 0, 0, 1, 0, 0, 0, 0, 0, 0, 0, 0), (0, 0, 0, 0, 0, 0, 0, 0, 0, 1, 0, 0)}
*** Found: 1; skipped: 0
s SATISFIABLE
	Command being timed: "/Users/soh/app/finding_attractors/incremental-finding.sh benchmark/automata-network/star_asp/star12.lp 24"
	User time (seconds): 9947.41
	System time (seconds): 11.85
	Percent of CPU this job got: 99%
	Elapsed (wall clock) time (h:mm:ss or m:ss): 2:46:04
	Average shared text size (kbytes): 0
	Average unshared data size (kbytes): 0
	Average stack size (kbytes): 0
	Average total size (kbytes): 0
	Maximum resident set size (kbytes): 2642395136
	Average resident set size (kbytes): 0
	Major (requiring I/O) page faults: 0
	Minor (reclaiming a frame) page faults: 1270723
	Voluntary context switches: 732
	Involuntary context switches: 699740
	Swaps: 0
	File system inputs: 0
	File system outputs: 0
	Socket messages sent: 1362
	Socket messages received: 0
	Signals delivered: 1
	Page size (bytes): 4096
	Exit status: 0
FINISHED CPU 9959.26 MEM 0 MAXMEM 0 STALE 1
#RESULT: SAT
#FIN: FIN
#CPU: 9959.26
#MAXMEM: 0
c 
#END: [Fri Oct 28 14:23:04 2022]
